Differential/diff_ivlbc_5.txt
12 seconds 
<gurobi.Var p0_0_15 (value 1.0)>
<gurobi.Var p0_1_8 (value 1.0)>
<gurobi.Var p0_1_10 (value 1.0)>
<gurobi.Var p0_1_11 (value 1.0)>
<gurobi.Var p0_2_0 (value 1.0)>
<gurobi.Var p0_2_1 (value 1.0)>
<gurobi.Var p0_2_3 (value 1.0)>
<gurobi.Var p0_2_4 (value 1.0)>
<gurobi.Var p0_2_6 (value 1.0)>
<gurobi.Var p0_2_7 (value 1.0)>
<gurobi.Var p0_2_9 (value 1.0)>
<gurobi.Var p0_2_10 (value 1.0)>
<gurobi.Var p0_2_11 (value 1.0)>
<gurobi.Var p0_3_3 (value 1.0)>
<gurobi.Var p0_3_6 (value 1.0)>
<gurobi.Var p0_3_12 (value 1.0)>
<gurobi.Var p0_4_15 (value 1.0)>
<gurobi.Var x0_63 (value 1.0)>
<gurobi.Var A0_15 (value 1.0)>
<gurobi.Var y0_62 (value 1.0)>
<gurobi.Var z0_38 (value 1.0)>
<gurobi.Var x1_34 (value 1.0)>
<gurobi.Var d0_69 (value 1.0)>
<gurobi.Var x1_42 (value 1.0)>
<gurobi.Var d0_85 (value 1.0)>
<gurobi.Var x1_46 (value 1.0)>
<gurobi.Var d0_93 (value 1.0)>
<gurobi.Var A1_8 (value 1.0)>
<gurobi.Var y1_35 (value 1.0)>
<gurobi.Var A1_10 (value 1.0)>
<gurobi.Var y1_43 (value 1.0)>
<gurobi.Var A1_11 (value 1.0)>
<gurobi.Var y1_47 (value 1.0)>
<gurobi.Var z1_11 (value 1.0)>
<gurobi.Var z1_23 (value 1.0)>
<gurobi.Var z1_35 (value 1.0)>
<gurobi.Var x2_3 (value 1.0)>
<gurobi.Var d1_7 (value 1.0)>
<gurobi.Var x2_7 (value 1.0)>
<gurobi.Var d1_15 (value 1.0)>
<gurobi.Var x2_15 (value 1.0)>
<gurobi.Var d1_31 (value 1.0)>
<gurobi.Var x2_19 (value 1.0)>
<gurobi.Var d1_39 (value 1.0)>
<gurobi.Var x2_27 (value 1.0)>
<gurobi.Var d1_55 (value 1.0)>
<gurobi.Var x2_31 (value 1.0)>
<gurobi.Var d1_63 (value 1.0)>
<gurobi.Var x2_39 (value 1.0)>
<gurobi.Var d1_79 (value 1.0)>
<gurobi.Var x2_43 (value 1.0)>
<gurobi.Var d1_87 (value 1.0)>
<gurobi.Var x2_47 (value 1.0)>
<gurobi.Var d1_95 (value 1.0)>
<gurobi.Var A2_0 (value 1.0)>
<gurobi.Var y2_2 (value 1.0)>
<gurobi.Var A2_1 (value 1.0)>
<gurobi.Var y2_6 (value 1.0)>
<gurobi.Var A2_3 (value 1.0)>
<gurobi.Var y2_14 (value 1.0)>
<gurobi.Var A2_4 (value 1.0)>
<gurobi.Var y2_18 (value 1.0)>
<gurobi.Var A2_6 (value 1.0)>
<gurobi.Var y2_26 (value 1.0)>
<gurobi.Var A2_7 (value 1.0)>
<gurobi.Var y2_30 (value 1.0)>
<gurobi.Var A2_9 (value 1.0)>
<gurobi.Var y2_38 (value 1.0)>
<gurobi.Var A2_10 (value 1.0)>
<gurobi.Var y2_42 (value 1.0)>
<gurobi.Var A2_11 (value 1.0)>
<gurobi.Var y2_46 (value 1.0)>
<gurobi.Var z2_2 (value 1.0)>
<gurobi.Var z2_6 (value 1.0)>
<gurobi.Var z2_10 (value 1.0)>
<gurobi.Var z2_18 (value 1.0)>
<gurobi.Var z2_22 (value 1.0)>
<gurobi.Var z2_30 (value 1.0)>
<gurobi.Var z2_54 (value 1.0)>
<gurobi.Var z2_58 (value 1.0)>
<gurobi.Var z2_62 (value 1.0)>
<gurobi.Var d2_5 (value 1.0)>
<gurobi.Var d2_13 (value 1.0)>
<gurobi.Var d2_21 (value 1.0)>
<gurobi.Var x3_14 (value 1.0)>
<gurobi.Var d2_28 (value 1.0)>
<gurobi.Var d2_37 (value 1.0)>
<gurobi.Var d2_45 (value 1.0)>
<gurobi.Var x3_26 (value 1.0)>
<gurobi.Var d2_52 (value 1.0)>
<gurobi.Var d2_61 (value 1.0)>
<gurobi.Var x3_50 (value 1.0)>
<gurobi.Var d2_100 (value 1.0)>
<gurobi.Var d2_109 (value 1.0)>
<gurobi.Var d2_117 (value 1.0)>
<gurobi.Var d2_125 (value 1.0)>
<gurobi.Var A3_3 (value 1.0)>
<gurobi.Var y3_15 (value 1.0)>
<gurobi.Var A3_6 (value 1.0)>
<gurobi.Var y3_27 (value 1.0)>
<gurobi.Var A3_12 (value 1.0)>
<gurobi.Var y3_51 (value 1.0)>
<gurobi.Var z3_51 (value 1.0)>
<gurobi.Var z3_55 (value 1.0)>
<gurobi.Var z3_59 (value 1.0)>
<gurobi.Var d3_103 (value 1.0)>
<gurobi.Var d3_111 (value 1.0)>
<gurobi.Var d3_119 (value 1.0)>
<gurobi.Var x4_63 (value 1.0)>
<gurobi.Var d3_126 (value 1.0)>
<gurobi.Var A4_15 (value 1.0)>
<gurobi.Var y4_62 (value 1.0)>
<gurobi.Var z4_38 (value 1.0)>
<gurobi.Var x5_34 (value 1.0)>
<gurobi.Var d4_69 (value 1.0)>
<gurobi.Var x5_42 (value 1.0)>
<gurobi.Var d4_85 (value 1.0)>
<gurobi.Var x5_46 (value 1.0)>
<gurobi.Var d4_93 (value 1.0)>
